100
237 104 397 155 67 402 918 801 766 222 537 277 173 107 215 928 829 807 801 194 310 627 732 855 881 87 606 672 506 178 474 90 935 866 548 301 909 573 883 849 509 414 599 432 162 306 813 44 47 627 281 535 472 343 998 196 413 203 633 277 356 747 321 559 905 101 62 229 766 616 238 332 178 460 43 698 896 955 735 960 19 289 967 776 411 944 621 818 294 192 445 137 382 962 332 10 45 170 784 363 
336 202 499 255 166 500 1016 899 867 320 635 377 272 209 313 1028 930 907 903 294 409 727 830 955 980 189 708 772 604 277 573 189 1034 968 646 399 1011 673 985 949 611 515 700 533 262 404 912 146 149 729 380 636 573 444 1100 296 514 304 732 379 458 845 423 661 1006 199 164 327 868 717 336 430 279 560 144 800 995 1053 837 1058 121 387 1069 877 513 1044 723 917 395 291 547 238 482 1062 430 108 145 270 886 464 
23881
